(set-logic UF)
(declare-sort Set 0)
(declare-sort Elem 0)
(declare-fun member (Elem Set) Bool)
(declare-fun subset (Set Set) Bool)
(declare-fun seteq (Set Set) Bool)
(declare-fun union (Set Set) Set)
(declare-fun intersection (Set Set) Set)
(declare-fun difference (Set Set) Set)
(declare-fun a () Set)
(declare-fun b () Set)
(assert (not (not (forall ((?x Elem)) (or (not (member ?x (intersection b a))) (member ?x (intersection a b)))))))
(assert (or (subset (intersection b a) (intersection a b)) (not (forall ((?x Elem)) (or (not (member ?x (intersection b a))) (member ?x (intersection a b))))) (not (or (subset (intersection b a) (intersection a b)) (not (forall ((?x Elem)) (or (not (member ?x (intersection b a))) (member ?x (intersection a b)))))))))
(assert (not (subset (intersection b a) (intersection a b))))
(assert (or (subset (intersection b a) (intersection a b)) (not (forall ((?x Elem)) (or (not (member ?x (intersection b a))) (member ?x (intersection a b)))))))
(check-sat)
(exit)
